SCIP Status        : solving was interrupted [time limit reached]
Total Time         :    3599.99
  solving          :    3599.99
  presolving       :       0.49 (included in solving)
  reading          :       0.00
  copying          :       1.62 (38 #copies) (minimal 0.00, maximal 0.15, average 0.04)
Original Problem   :
  Problem name     : bbbenchmark/pw05_100.6.cut
  Variables        : 101 (100 binary, 0 integer, 0 implicit integer, 1 continuous)
  Constraints      : 1 initial, 1 maximal
  Objective        : minimize, 1 non-zeros (abs.min = 1, abs.max = 1)
Presolved Problem  :
  Problem name     : t_bbbenchmark/pw05_100.6.cut
  Variables        : 1956 (100 binary, 0 integer, 1843 implicit integer, 13 continuous)
  Constraints      : 1880 initial, 9937 maximal
  Objective        : minimize, 1 non-zeros (abs.min = 1, abs.max = 1)
  Nonzeros         : 8809 constraint, 202 clique table
Presolvers         :   ExecTime  SetupTime  Calls  FixedVars   AggrVars   ChgTypes  ChgBounds   AddHoles    DelCons    AddCons   ChgSides   ChgCoefs
  boundshift       :       0.00       0.00      0          0          0          0          0          0          0          0          0          0
  convertinttobin  :       0.00       0.00      0          0          0          0          0          0          0          0          0          0
  domcol           :       0.00       0.00      1          0          0          0          0          0          0          0          0          0
  dualagg          :       0.00       0.00      0          0          0          0          0          0          0          0          0          0
  dualcomp         :       0.00       0.00      1          0          0          0          0          0          0          0          0          0
  dualinfer        :       0.00       0.00      0          0          0          0          0          0          0          0          0          0
  dualsparsify     :       0.00       0.00      1          0          0          0          0          0          0          0          0          0
  gateextraction   :       0.00       0.00      0          0          0          0          0          0          0          0          0          0
  implics          :       0.00       0.00      2          0          0          0          0          0          0          0          0          0
  inttobinary      :       0.00       0.00      0          0          0          0          0          0          0          0          0          0
  qpkktref         :       0.00       0.00      0          0          0          0          0          0          0          0          0          0
  redvub           :       0.00       0.00      0          0          0          0          0          0          0          0          0          0
  sparsify         :       0.00       0.00      1          0          0          0          0          0          0          0          0          0
  stuffing         :       0.00       0.00      0          0          0          0          0          0          0          0          0          0
  trivial          :       0.00       0.00      4          0          0          0          0          0          0          0          0          0
  tworowbnd        :       0.00       0.00      0          0          0          0          0          0          0          0          0          0
  dualfix          :       0.00       0.00      4          0          0          0          0          0          0          0          0          0
  genvbounds       :       0.00       0.00      0          0          0          0          0          0          0          0          0          0
  probing          :       0.35       0.00      1          0          0          0          0          0          0          0          0          0
  pseudoobj        :       0.00       0.00      1          0          0          0          1          0          0          0          0          0
  symmetry         :       0.00       0.00      0          0          0          0          0          0          0          0          0          0
  vbounds          :       0.00       0.00      1          0          0          0          0          0          0          0          0          0
  varbound         :       0.00       0.00      2          0          0          0          0          0          0          0          0          0
  and              :       0.01       0.01      2          0          0          0          0          0          0          0          0          0
  linear           :       0.00       0.00      2          0          0          0          0          0          0          0          0          0
  logicor          :       0.00       0.00      0          0          0          0          0          0          0          0          0          0
  bounddisjunction :       0.00       0.00      0          0          0          0          0          0          0          0          0          0
  nonlinear        :       0.13       0.01      5          0          0          0          1          0          0       1879          0          0
  benders          :       0.00       0.00      0          0          0          0          0          0          0          0          0          0
  components       :       0.00       0.00      1          0          0          0          0          0          0          0          0          0
  root node        :          -          -      -          0          -          -         13          -          -          -          -          -
Constraints        :     Number  MaxNumber  #Separate #Propagate    #EnfoLP    #EnfoRelax  #EnfoPS    #Check   #ResProp    Cutoffs    DomReds       Cuts    Applied      Conss   Children
  benderslp        :          0          0          0          0      32232          0          0       6751          0          0          0          0          0          0          0
  integral         :          0          0          0          0      32232          0          0       6751          0          0        906          0          0        452      63700
  varbound         :         12         12         29     321085          0          0          0         53          0          0      17405          0          0          0          0
  and              :       1843       1843      47585     373371          0          0          0         53     306762          0     489251      12588      11450          0          0
  linear           :         25+        28         29     373400          0          0          0         51        195          2     106332          0          0          0          0
  logicor          :          0+      7977          0      57728          0          0          0          0         80        155         31          0          0          0          0
  bounddisjunction :          0+        87          0      16325          0          0          0          0          0          3          0          0          0          0          0
  benders          :          0          0          0          0          0          0          0         43          0          0          0          0          0          0          0
  countsols        :          0          0          0          0          0          0          0         43          0          0          0          0          0          0          0
  components       :          0          0          0          0          0          0          0          0          0          0          0          0          0          0          0
Constraint Timings :  TotalTime  SetupTime   Separate  Propagate     EnfoLP     EnfoPS     EnfoRelax   Check    ResProp    SB-Prop
  benderslp        :       0.04       0.00       0.00       0.00       0.04       0.00       0.00       0.00       0.00       0.00
  integral         :      58.91       0.00       0.00       0.00      58.87       0.00       0.00       0.04       0.00       0.00
  varbound         :       0.31       0.00       0.00       0.28       0.00       0.00       0.00       0.00       0.00       0.03
  and              :      53.38       0.01      33.51      18.91       0.00       0.00       0.00       0.01       0.27       0.67
  linear           :       2.44       0.00       0.02       2.33       0.00       0.00       0.00       0.01       0.01       0.07
  logicor          :       4.71       0.00       0.00       4.70       0.00       0.00       0.00       0.00       0.00       0.01
  bounddisjunction :       0.12       0.00       0.00       0.12       0.00       0.00       0.00       0.00       0.00       0.00
  benders          :       0.00       0.00       0.00       0.00       0.00       0.00       0.00       0.00       0.00       0.00
  countsols        :       0.00       0.00       0.00       0.00       0.00       0.00       0.00       0.00       0.00       0.00
  components       :       0.12       0.00       0.00       0.12       0.00       0.00       0.00       0.00       0.00       0.00
Propagators        : #Propagate   #ResProp    Cutoffs    DomReds
  dualfix          :          4          0          0          0
  genvbounds       :          0          0          0          0
  nlobbt           :          0          0          0          0
  obbt             :          0          0          0          0
  probing          :          0          0          0          0
  pseudoobj        :     142928          2          0        999
  redcost          :      88211          0          0      39799
  rootredcost      :          8          0          0          0
  symmetry         :          0          0          0          0
  vbounds          :      38954          0          0          0
Propagator Timings :  TotalTime  SetupTime   Presolve  Propagate    ResProp    SB-Prop
  dualfix          :       0.00       0.00       0.00       0.00       0.00       0.00
  genvbounds       :       0.36       0.00       0.00       0.36       0.00       0.00
  nlobbt           :       0.00       0.00       0.00       0.00       0.00       0.00
  obbt             :       0.00       0.00       0.00       0.00       0.00       0.00
  probing          :       0.35       0.00       0.35       0.00       0.00       0.00
  pseudoobj        :       0.41       0.00       0.00       0.40       0.00       0.01
  redcost          :       6.85       0.00       0.00       6.85       0.00       0.00
  rootredcost      :       0.32       0.00       0.00       0.32       0.00       0.00
  symmetry         :       0.17       0.00       0.00       0.17       0.00       0.00
  vbounds          :       0.25       0.00       0.00       0.24       0.00       0.01
Conflict Analysis  :       Time      Calls    Success    DomReds  Conflicts   Literals    Reconvs ReconvLits   Dualrays   Nonzeros   LP Iters   (pool size: [10000,10000])
  propagation      :       0.00        158        108          -        119       57.3          0        0.0          -          -          -
  infeasible LP    :       0.00          9          9          -        356      139.1          0        0.0         10      193.5          0
  bound exceed. LP :      15.21       3467       3053          -      84172      107.9          0        0.0          0        0.0      36069
  strong branching :       0.00          0          0          -          0        0.0          0        0.0          -          -          0
  pseudo solution  :       0.00          0          0          -          0        0.0          0        0.0          -          -          -
  applied globally :       0.29          -          -          0      16783      124.8          -          -         10          -          -
  applied locally  :          -          -          -          0          0        0.0          -          -          0          -          -
Separators         :   ExecTime  SetupTime      Calls  RootCalls    Cutoffs    DomReds  FoundCuts ViaPoolAdd  DirectAdd    Applied ViaPoolApp  DirectApp      Conss
  cut pool         :       8.12          -      23636         50          -          -      49659    2211178          -          -          -          -          -    (maximal pool size:       3592)
  aggregation      :     142.62       0.00       9553         29          0          0       1599       6116          0       2133       2133          0          0
  > cmir           :          -          -          -          -          -          -          -       6113          0       2130       2130          0          -
  > flowcover      :          -          -          -          -          -          -          -          3          0          3          3          0          -
  > knapsackcover  :          -          -          -          -          -          -          -          0          0          0          0          0          -
  cgmip            :       0.00       0.00          0          0          0          0          0          0          0          0          0          0          0
  clique           :       0.00       0.00         29         29          0          0          0          0          0          0          0          0          0
  closecuts        :       0.00       0.00          0          0          0          0          0          0          0          0          0          0          0
  convexproj       :       0.00       0.00          0          0          0          0          0          0          0          0          0          0          0
  disjunctive      :       0.00       0.00          0          0          0          0          0          0          0          0          0          0          0
  eccuts           :       0.00       0.00          0          0          0          0          0          0          0          0          0          0          0
  gauge            :       0.00       0.00          0          0          0          0          0          0          0          0          0          0          0
  gomory           :       0.00       0.00          0          0          0          0          0          0          0          0          0          0          0
  > gomorymi       :          -          -          -          -          -          -          -          0          0          0          0          0          -
  > strongcg       :          -          -          -          -          -          -          -          0          0          0          0          0          -
  impliedbounds    :       0.65       0.00       9553         29          0          0         78          3          0          1          1          0          0
  interlattice     :       0.00       0.00          0          0          0          0          0          0          0          0          0          0          0
  interminor       :       0.00       0.00          0          0          0          0          0          0          0          0          0          0          0
  intersub         :       0.12       0.00          5          5          0          0          3          0          3          3          0          3          0
  intobj           :       0.00       0.00          0          0          0          0          0          0          0          0          0          0          0
  mcf              :       0.00       0.00          1          1          0          0          0          0          0          0          0          0          0
  minor            :       0.03       0.00          0          0          0          0          0          0          0          0          0          0          0
  mixing           :       0.04       0.00       9553         29          0          0          0          0          0          0          0          0          0
  oddcycle         :       0.00       0.00          0          0          0          0          0          0          0          0          0          0          0
  rapidlearning    :       0.00       0.00          0          0          0          0          0          0          0          0          0          0          0
  rlt              :       0.00       0.00         10         10          0          0          0          0          0          0          0          0          0
  zerohalf         :     107.26       0.00       8245         20          0          0      47982    2205059          0     169935     169935          0          0
Cutselectors       :   ExecTime  SetupTime      Calls  RootCalls   Selected     Forced   Filtered  RootSelec   RootForc   RootFilt 
  hybrid           :       2.08       0.00      18746         27     183522          0    2040247        191          0         60
Pricers            :   ExecTime  SetupTime      Calls       Vars
  problem variables:       0.00          -          0          0
Branching Rules    :   ExecTime  SetupTime   BranchLP  BranchExt   BranchPS    Cutoffs    DomReds       Cuts      Conss   Children
  allfullstrong    :       0.00       0.00          0          0          0          0          0          0          0          0
  cloud            :       0.00       0.00          0          0          0          0          0          0          0          0
  distribution     :       0.00       0.00          0          0          0          0          0          0          0          0
  fullstrong       :       0.00       0.00          0          0          0          0          0          0          0          0
  inference        :       0.00       0.00          0          0          0          0          0          0          0          0
  leastinf         :       0.00       0.00          0          0          0          0          0          0          0          0
  lookahead        :       0.00       0.00          0          0          0          0          0          0          0          0
  mostinf          :       0.00       0.00          0          0          0          0          0          0          0          0
  multaggr         :       0.00       0.00          0          0          0          0          0          0          0          0
  nodereopt        :       0.00       0.00          0          0          0          0          0          0          0          0
  pscost           :       0.00       0.00          0          0          0          0          0          0          0          0
  random           :       0.00       0.00          0          0          0          0          0          0          0          0
  relpscost        :      58.75       0.00      32232          0          0          0        906          0        452      63700
  vanillafullstrong:       0.00       0.00          0          0          0          0          0          0          0          0
Primal Heuristics  :   ExecTime  SetupTime      Calls      Found       Best
  LP solutions     :       0.00          -          -          0          0
  relax solutions  :       0.00          -          -          0          0
  pseudo solutions :       0.00          -          -          0          0
  strong branching :       0.05          -          -          0          0
  actconsdiving    :       0.00       0.00          0          0          0
  adaptivediving   :       4.87       0.00         28          0          0
  alns             :       3.91       0.00         20         12         11
  bound            :       0.00       0.00          0          0          0
  clique           :       0.01       0.00          1          0          0
  coefdiving       :       0.00       0.00          0          0          0
  completesol      :       0.00       0.00          0          0          0
  conflictdiving   :      43.39       0.00        257          0          0
  crossover        :       4.32       0.00          4          1          1
  dins             :       0.00       0.00          0          0          0
  distributiondivin:      73.54       0.00        257          0          0
  dps              :       0.00       0.00          0          0          0
  dualval          :       0.00       0.00          0          0          0
  farkasdiving     :       0.00       0.00          0          0          0
  feaspump         :       0.21       0.00          1          1          1
  fixandinfer      :       0.00       0.00          0          0          0
  fracdiving       :      59.06       0.00        257          0          0
  gins             :       0.07       0.00          0          0          0
  guideddiving     :      55.74       0.00        257          0          0
  indicator        :       0.09       0.00          0          0          0
  indicatordiving  :       0.00       0.00          0          0          0
  intdiving        :       0.00       0.00          0          0          0
  intshifting      :       0.46       0.00         44          0          0
  linesearchdiving :      45.79       0.00        258          0          0
  localbranching   :       0.00       0.00          0          0          0
  locks            :       0.01       0.00          1          0          0
  lpface           :       0.02       0.00          0          0          0
  mpec             :     166.97       0.00         11          0          0
  multistart       :       0.00       0.00          0          0          0
  mutation         :       0.00       0.00          0          0          0
  nlpdiving        :      19.61       0.00          2          0          0
  objpscostdiving  :      87.51       0.00         41         14          0
  octane           :       0.00       0.00          0          0          0
  ofins            :       0.07       0.00          0          0          0
  oneopt           :       0.06       0.00         13          0          0
  padm             :       0.00       0.00          0          0          0
  proximity        :       0.00       0.00          0          0          0
  pscostdiving     :      59.74       0.00        257          1          1
  randrounding     :       0.49       0.00       6704          0          0
  rens             :       0.00       0.00          0          0          0
  reoptsols        :       0.00       0.00          0          0          0
  repair           :       0.00       0.00          0          0          0
  rins             :       1.45       0.00         14          1          1
  rootsoldiving    :      49.98       0.00         24          2          0
  rounding         :       0.93       0.00       3027          0          0
  shiftandpropagate:       0.00       0.00          0          0          0
  shifting         :      48.08       0.00       8792          5          4
  simplerounding   :       0.07       0.00          0          0          0
  subnlp           :      75.48       0.00          0          0          0
  trivial          :       0.00       0.00          2          2          2
  trivialnegation  :       0.00       0.00          0          0          0
  trustregion      :       0.00       0.00          0          0          0
  trysol           :       0.13       0.00          0          0          0
  twoopt           :       0.00       0.00          0          0          0
  undercover       :       0.50       0.00          1          1          1
  vbounds          :       0.00       0.00          0          0          0
  veclendiving     :      39.86       0.00        257          0          0
  zeroobj          :       0.00       0.00          0          0          0
  zirounding       :       0.48       0.00       1000          0          0
  other solutions  :          -          -          -          0          -
Diving (single)    :      Calls      Nodes   LP Iters Backtracks  Conflicts   MinDepth   MaxDepth   AvgDepth  RoundSols  NLeafSols  MinSolDpt  MaxSolDpt  AvgSolDpt
  actconsdiving    :          0          -          -          -          -          -          -          -          -          -          -          -          -
  coefdiving       :          0          -          -          -          -          -          -          -          -          -          -          -          -
  conflictdiving   :        257      10915     330049        283      18453         47         77       58.8          0          -          -          -          -
  distributiondivin:        257       9049     443029        278       9733         43         68       52.4          0          -          -          -          -
  farkasdiving     :          0          -          -          -          -          -          -          -          -          -          -          -          -
  fracdiving       :        257      64853     378534         61        876         54        649      270.9          0          -          -          -          -
  guideddiving     :        257      56762     369117         14        418         77        568      239.1          0          -          -          -          -
  indicatordiving  :          0          -          -          -          -          -          -          -          -          -          -          -          -
  linesearchdiving :        258      11880     341120        291      15874         45         98       63.5          0          -          -          -          -
  pscostdiving     :        257      11425     437807        263      12952         50         74       61.9          0          1         74         74       74.0
  veclendiving     :        257      11022     291157        261      19495         49         87       60.3          0          -          -          -          -
Diving (adaptive)  :      Calls      Nodes   LP Iters Backtracks  Conflicts   MinDepth   MaxDepth   AvgDepth  RoundSols  NLeafSols  MinSolDpt  MaxSolDpt  AvgSolDpt
  actconsdiving    :          2         89       3198          2         16         55         58       56.5          0          -          -          -          -
  coefdiving       :          9        387      10904          9        634         55         63       58.1          0          -          -          -          -
  conflictdiving   :          0          -          -          -          -          -          -          -          -          -          -          -          -
  distributiondivin:          0          -          -          -          -          -          -          -          -          -          -          -          -
  farkasdiving     :          0          -          -          -          -          -          -          -          -          -          -          -          -
  fracdiving       :          3        747       3983          0          0         91        530      269.3          0          -          -          -          -
  guideddiving     :          3        319       3652          0          0        105        157      124.3          0          -          -          -          -
  indicatordiving  :          0          -          -          -          -          -          -          -          -          -          -          -          -
  linesearchdiving :          3        139       3147          3        185         59         74       68.7          0          -          -          -          -
  pscostdiving     :          4        186       6765          4        172         61         65       63.0          0          -          -          -          -
  veclendiving     :          4        177       4735          4        323         55         61       59.0          0          -          -          -          -
Neighborhoods      :      Calls  SetupTime  SolveTime SolveNodes       Sols       Best       Exp3  EpsGreedy        UCB TgtFixRate  Opt  Inf Node Stal  Sol  Usr Othr Actv
  rens             :          2       0.18       0.02          1          0          0    0.00000   -1.00000    0.54885      0.550    0    2    0    0    0    0    0    1
  rins             :          2       0.19       0.10         63          0          0    0.00000   -1.00000    0.47385      0.850    0    1    0    1    0    0    0    1
  mutation         :          8       0.69       1.57        957         10         10    0.00000   -1.00000    0.53320      0.656    1    0    0    4    3    0    0    1
  localbranching   :          1       0.03       0.02         17          0          0    0.00000   -1.00000    0.55279      0.700    0    1    0    0    0    0    0    1
  crossover        :          2       0.16       0.02          2          0          0    0.00000   -1.00000    0.54764      0.550    0    2    0    0    0    0    0    1
  proximity        :          2       0.08       0.51        356          2          1    0.00000   -1.00000    0.49085      0.850    1    0    0    1    0    0    0    1
  zeroobjective    :          1       0.03       0.02         32          0          0    0.00000   -1.00000    0.53779      0.700    0    1    0    0    0    0    0    1
  dins             :          2       0.03       0.02         17          0          0    0.00000   -1.00000    0.29085      0.700    0    1    0    0    0    0    1    1
  trustregion      :          0       0.00       0.00          0          0          0    0.00000   -1.00000    1.00000      0.900    0    0    0    0    0    0    0    0
Expressions        :   #IntEval  IntEvalTi   #RevProp  RevPropTi    DomReds    Cutoffs  #Estimate  EstimTime  Branching  #Simplify SimplifyTi Simplified
  pow              :          0       0.00          0       0.00          0          0          0       0.00          0          0       0.00          0
  prod             :       9900       0.00          0       0.00          0          0          0       0.00          0       6793       0.04          0
  sum              :          8       0.00          2       0.00          0          0          0       0.00          0          3       0.02          2
  var              :       6677       0.00          0       0.00          0          0          0       0.00          0      15744       0.01          0
  varidx           :          0       0.00          0       0.00          0          0          0       0.00          0          0       0.00          0
LP                 :       Time      Calls Iterations  Iter/call   Iter/sec  Time-0-It Calls-0-It    ItLimit
  primal LP        :     121.61       6962          0       0.00       0.00     121.59       6962
  dual LP          :    2169.14      75373    9739832     138.41    4490.18       2.95       5002
  lex dual LP      :       0.00          0          0       0.00          -
  barrier LP       :       0.00          0          0       0.00          -       0.00          0
  resolve instable :       0.00          0          0       0.00          -
  diving/probing LP:     452.77       9856    3202908     324.97    7074.03
  strong branching :      41.86       1740     278174     159.87    6645.34          -          -        369
    (at root node) :          -         19       2870     151.05          -
  conflict analysis:       6.76       3645      36069       9.90    5335.65
NLP relaxation     :
  solve time       :      19.06 (8 calls)
  convexity        :  nonconvex (37 linear rows, 0 convex ineq., 0 nonconvex ineq., 1843 nonlinear eq. or two-sided ineq.)
NLP Solvers        :  #Problems  ProblemTi    #Solves  SolveTime      #Iter  Time/Iter      #Okay #TimeLimit #IterLimit #LObjLimit #Interrupt  #NumError #EvalError  #OutOfMem #LicenseEr #OtherTerm   #GlobOpt    #LocOpt  #Feasible #LocInfeas #GlobInfea #Unbounded   #Unknown
  ipopt            :         12       3.28         24     193.19       1739       0.11         22          0          2          0          0          0          0          0          0          0          0          6          0         15          0          0          3
B&B Tree           :
  number of runs   :          1
  nodes            :      51280 (31850 internal, 19430 leaves)
  feasible leaves  :          0
  infeas. leaves   :          4
  objective leaves :      19425
  nodes (total)    :      51280 (31850 internal, 19430 leaves)
  nodes left       :      12264
  max depth        :         55
  max depth (total):         55
  backtracks       :      12516 (24.4%)
  early backtracks :          0 (0.0%)
  nodes exc. ref.  :          0 (0.0%)
  delayed cutoffs  :          4
  repropagations   :         38 (75 domain reductions, 0 cutoffs)
  avg switch length:       5.74
  switching time   :     133.54
Estim. Tree Size   :     102874
Estimation Tree    : 63701 nodes (51437 visited, 31850 internal, 19587 leaves, 12264 open), weight: 0.0000 completed 0.1095
Estimations        :      estim      value      trend resolution     smooth
  wbe              : 2995709786789          -          -          -          -
  tree-profile     :         -1          -          -          -          -
  gap              :     517918    0.68876    0.00004         32     531213
  tree-weight      :     102874    0.00000    0.00000         32     102803
  leaf-frequency   :    1523559    0.38079    0.00001         32    1194491
  ssg              :     957708    0.82714   -0.00006         32     948501
  open-nodes       :     102874 12264.00000    8.45341         32     102803
Root Node          :
  First LP value   : -5.58505050505052e+00
  First LP Iters   :       1626 (8557.89 Iter/sec)
  First LP Time    :       0.19
  Final Dual Bound : -5.37932517534726e+00
  Final Root Iters :       2221
  Root LP Estimate : -2.33470706332498e+00
Solution           :
  Solutions found  :         40 (22 improvements)
  First Solution   : +1.00000000000000e+05   (in run 1, after 0 nodes, 0.04 seconds, depth 0, found by <trivial>)
  Gap First Sol.   :   infinite
  Gap Last Sol.    :      49.67 %
  Primal Bound     : -3.24242424242424e+00   (in run 1, after 27679 nodes, 1067.85 seconds, depth 40, found by <alns>)
  Dual Bound       : -4.70765303886439e+00
  Gap              :      45.19 %
Integrals          :      Total       Avg%
  primal-dual      :  120422.03      33.45
  primal-ref       :          -          - (not evaluated)
  dual-ref         :          -          - (not evaluated)
